qbf_easy_train/easy_4005_SAT.qdimacs
p cnf 27 70
a 18 11 12 0
e 1 2 3 4 5 6 7 8 9 10 13 14 15 16 17 19 20 21 22 23 24 25 26 27 0
1 2 -3 0
-1 -2 -3 0
1 -2 3 0
-1 2 3 0
-6 4 0
-6 -5 0
-4 5 6 0
7 -8 -9 0
-7 8 -9 0
7 8 9 0
-7 -8 9 0
-6 -9 -10 0
6 9 -10 0
-6 9 10 0
6 -9 10 0
10 -11 -12 0
-10 11 -12 0
10 11 12 0
-10 -11 12 0
-13 -4 0
-13 5 0
4 -5 13 0
-14 -10 0
-14 13 0
10 -13 14 0
15 -4 0
15 8 0
4 -8 -15 0
-16 14 0
-16 -15 0
-14 15 16 0
-18 1 0
-18 -17 0
-1 17 18 0
19 -18 0
19 -18 0
18 -19 0
20 16 0
20 -19 0
-16 19 -20 0
21 -1 0
21 -8 0
1 8 -21 0
-22 -20 0
-22 -21 0
20 21 22 0
-23 6 0
-23 6 0
-6 23 0
-23 -9 -24 0
23 9 -24 0
-23 9 24 0
23 -9 24 0
-25 22 0
-25 -24 0
-22 24 25 0
-12 -25 -26 0
12 25 -26 0
-12 25 26 0
12 -25 26 0
27 3 0
27 -26 0
-3 26 -27 0
16 26 -20 12 8 25 -21 0
-2 18 -20 0
-4 -20 21 10 0
-10 15 19 0
-5 4 17 24 -21 25 0
11 -16 -26 0
27 0
