sat_easy_train/easy_4005_SAT.dimacs
p cnf 87 263
3 2 0
3 -2 0
-4 -1 0
-4 -3 0
1 3 4 0
-5 6 -7 0
5 -6 -7 0
-5 -6 7 0
5 6 7 0
7 8 -9 0
-7 -8 -9 0
7 -8 9 0
-7 8 9 0
-10 4 0
-10 -9 0
-4 9 10 0
11 12 0
-11 12 0
-14 12 0
-14 13 0
-12 -13 14 0
-10 -14 -15 0
10 14 -15 0
-10 14 15 0
10 -14 15 0
16 -7 -17 0
-16 7 -17 0
16 7 17 0
-16 -7 17 0
-20 -9 0
-20 -19 0
9 19 20 0
-22 20 0
-22 -21 0
-20 21 22 0
23 18 0
23 -22 0
-18 22 -23 0
6 -23 -24 0
-6 23 -24 0
6 23 24 0
-6 -23 24 0
25 -17 0
25 24 0
17 -24 -25 0
-15 -25 -26 0
15 25 -26 0
-15 25 26 0
15 -25 26 0
-27 12 0
-27 -8 0
-12 8 27 0
-28 -3 0
-28 -12 0
3 12 28 0
-1 28 -29 0
1 -28 -29 0
-1 -28 29 0
1 28 29 0
31 -30 0
31 -4 0
30 4 -31 0
-32 -28 0
-32 23 0
28 -23 32 0
33 -5 0
33 6 0
5 -6 -33 0
34 21 0
34 11 0
-21 -11 -34 0
-34 7 -35 0
34 -7 -35 0
-34 -7 35 0
34 7 35 0
-37 35 0
-37 -36 0
-35 36 37 0
-38 33 0
-38 37 0
-33 -37 38 0
-41 -39 0
-41 40 0
39 -40 41 0
42 38 0
42 41 0
-38 -41 -42 0
-43 -32 0
-43 -42 0
32 42 43 0
44 -31 0
44 -43 0
31 43 -44 0
45 -29 0
45 44 0
29 -44 -45 0
-46 -27 0
-46 -45 0
27 45 46 0
-47 26 0
-47 46 0
-26 -46 47 0
48 -11 0
48 6 0
11 -6 -48 0
49 12 0
49 -48 0
-12 48 -49 0
-50 -49 0
-50 2 0
49 -2 50 0
-49 -4 -51 0
49 4 -51 0
-49 4 51 0
49 -4 51 0
-52 -51 0
-52 40 0
51 -40 52 0
-53 -50 0
-53 52 0
50 -52 53 0
54 23 0
54 53 0
-23 -53 -54 0
47 54 -55 0
-47 -54 -55 0
47 -54 55 0
-47 54 55 0
-56 12 0
-56 3 0
-12 -3 56 0
56 39 -57 0
-56 -39 -57 0
56 -39 57 0
-56 39 57 0
-57 39 -58 0
57 -39 -58 0
-57 -39 58 0
57 39 58 0
-52 -56 -59 0
52 56 -59 0
-52 56 59 0
52 -56 59 0
60 -58 0
60 -59 0
58 59 -60 0
62 7 0
62 -61 0
-7 61 -62 0
-63 60 0
-63 62 0
-60 -62 63 0
55 -63 -64 0
-55 63 -64 0
55 63 64 0
-55 -63 64 0
20 -57 -65 0
-20 57 -65 0
20 57 65 0
-20 -57 65 0
12 56 -66 0
-12 -56 -66 0
12 -56 66 0
-12 56 66 0
-67 3 0
-67 -30 0
-3 30 67 0
68 -66 0
68 -67 0
66 67 -68 0
-69 57 0
-69 50 0
-57 -50 69 0
70 68 0
70 -69 0
-68 69 -70 0
71 -65 0
71 70 0
65 -70 -71 0
18 -57 -72 0
-18 57 -72 0
18 57 72 0
-18 -57 72 0
73 -16 0
73 -39 0
16 39 -73 0
-74 16 0
-74 -7 0
-16 7 74 0
-75 -73 0
-75 74 0
73 -74 75 0
-76 -72 0
-76 75 0
72 -75 76 0
77 -71 0
77 76 0
71 -76 -77 0
-78 34 0
-78 23 0
-34 -23 78 0
79 19 0
79 61 0
-19 -61 -79 0
-80 -35 0
-80 39 0
35 -39 80 0
-81 80 0
-81 5 0
-80 -5 81 0
82 -79 0
82 81 0
79 -81 -82 0
83 -78 0
83 82 0
78 -82 -83 0
-84 -36 0
-84 -36 0
36 84 0
-85 83 0
-85 84 0
-83 -84 85 0
86 -77 0
86 85 0
77 -85 -86 0
87 -64 0
87 -86 0
64 86 -87 0
26 43 -72 -47 75 0
-56 29 0
69 -67 -83 1 -9 0
-64 -51 24 -1 -35 87 0
-69 -44 66 0
-35 -70 17 0
-26 6 -49 82 -29 -1 0
-71 60 35 -85 0
7 -2 0
43 -62 -66 0
-33 -45 -70 -31 0
84 64 0
66 26 0
43 65 51 0
55 68 -54 0
-83 -61 65 -45 0
29 -15 -9 -17 4 0
75 38 0
-13 -31 -78 26 74 0
16 -65 -52 83 -25 0
55 6 0
19 -82 52 18 0
-13 62 -34 -23 -31 0
70 31 -22 -65 -72 59 0
-44 -37 79 11 5 0
-39 64 -66 73 -48 17 0
1 46 -83 0
-58 -10 -49 -7 0
81 -21 39 71 0
36 40 -55 -20 -50 0
59 -73 0
-13 14 -41 -73 0
-2 -47 -13 -60 0
49 61 79 -53 -48 0
87 0
